Maximize
+  C1,2 + C1,7 +  C2,3 + C2,8 +  C3,4 + C3,9 +  C4,5 + C4,10 +  C5,6 + C5,11 + C6,12 +  C7,8 + C7,13 +  C8,9 + C8,14 +  C9,10 + C9,15 +  C10,11 + C10,16 +  C11,12 + C11,17 + C12,18 +  C13,14 + C13,19 +  C14,15 + C14,20 +  C15,16 + C15,21 +  C16,17 + C16,22 +  C17,18 + C17,23 + C18,24 +  C19,20 + C19,25 +  C20,21 + C20,26 +  C21,22 + C21,27 +  C22,23 + C22,28 +  C23,24 + C23,29 + C24,30 +  C25,26 + C25,31 +  C26,27 + C26,32 +  C27,28 + C27,33 +  C28,29 + C28,34 +  C29,30 + C29,35 + C30,36 +  C31,32 +  C32,33 +  C33,34 +  C34,35 +  C35,36  - Offset 
  

subject to 
Offset = 0 
+ A1,1 + A1,2 + A1,3 + A1,4 + A1,5 + A1,6 + A1,7 + A1,8 + A1,9 + A1,10 + A1,11 + A1,12 + A1,13 + A1,14 + A1,15 + A1,16 + A1,17 + A1,18 + A1,19 + A1,20 + A1,21 + A1,22 + A1,23 + A1,24 + A1,25 + A1,26 + A1,27 + A1,28 + A1,29 + A1,30 + A1,31 + A1,32 + A1,33 + A1,34 + A1,35 + A1,36 =  1 
+ A2,1 + A2,2 + A2,3 + A2,4 + A2,5 + A2,6 + A2,7 + A2,8 + A2,9 + A2,10 + A2,11 + A2,12 + A2,13 + A2,14 + A2,15 + A2,16 + A2,17 + A2,18 + A2,19 + A2,20 + A2,21 + A2,22 + A2,23 + A2,24 + A2,25 + A2,26 + A2,27 + A2,28 + A2,29 + A2,30 + A2,31 + A2,32 + A2,33 + A2,34 + A2,35 + A2,36 =  1 
+ A3,1 + A3,2 + A3,3 + A3,4 + A3,5 + A3,6 + A3,7 + A3,8 + A3,9 + A3,10 + A3,11 + A3,12 + A3,13 + A3,14 + A3,15 + A3,16 + A3,17 + A3,18 + A3,19 + A3,20 + A3,21 + A3,22 + A3,23 + A3,24 + A3,25 + A3,26 + A3,27 + A3,28 + A3,29 + A3,30 + A3,31 + A3,32 + A3,33 + A3,34 + A3,35 + A3,36 =  1 
+ A4,1 + A4,2 + A4,3 + A4,4 + A4,5 + A4,6 + A4,7 + A4,8 + A4,9 + A4,10 + A4,11 + A4,12 + A4,13 + A4,14 + A4,15 + A4,16 + A4,17 + A4,18 + A4,19 + A4,20 + A4,21 + A4,22 + A4,23 + A4,24 + A4,25 + A4,26 + A4,27 + A4,28 + A4,29 + A4,30 + A4,31 + A4,32 + A4,33 + A4,34 + A4,35 + A4,36 =  1 
+ A5,1 + A5,2 + A5,3 + A5,4 + A5,5 + A5,6 + A5,7 + A5,8 + A5,9 + A5,10 + A5,11 + A5,12 + A5,13 + A5,14 + A5,15 + A5,16 + A5,17 + A5,18 + A5,19 + A5,20 + A5,21 + A5,22 + A5,23 + A5,24 + A5,25 + A5,26 + A5,27 + A5,28 + A5,29 + A5,30 + A5,31 + A5,32 + A5,33 + A5,34 + A5,35 + A5,36 =  1 
+ A6,1 + A6,2 + A6,3 + A6,4 + A6,5 + A6,6 + A6,7 + A6,8 + A6,9 + A6,10 + A6,11 + A6,12 + A6,13 + A6,14 + A6,15 + A6,16 + A6,17 + A6,18 + A6,19 + A6,20 + A6,21 + A6,22 + A6,23 + A6,24 + A6,25 + A6,26 + A6,27 + A6,28 + A6,29 + A6,30 + A6,31 + A6,32 + A6,33 + A6,34 + A6,35 + A6,36 =  1 
+ A1,1 + A2,1 + A3,1 + A4,1 + A5,1 + A6,1 <=  1 
+ A1,2 + A2,2 + A3,2 + A4,2 + A5,2 + A6,2 <=  1 
+ A1,3 + A2,3 + A3,3 + A4,3 + A5,3 + A6,3 <=  1 
+ A1,4 + A2,4 + A3,4 + A4,4 + A5,4 + A6,4 <=  1 
+ A1,5 + A2,5 + A3,5 + A4,5 + A5,5 + A6,5 <=  1 
+ A1,6 + A2,6 + A3,6 + A4,6 + A5,6 + A6,6 <=  1 
+ A1,7 + A2,7 + A3,7 + A4,7 + A5,7 + A6,7 <=  1 
+ A1,8 + A2,8 + A3,8 + A4,8 + A5,8 + A6,8 <=  1 
+ A1,9 + A2,9 + A3,9 + A4,9 + A5,9 + A6,9 <=  1 
+ A1,10 + A2,10 + A3,10 + A4,10 + A5,10 + A6,10 <=  1 
+ A1,11 + A2,11 + A3,11 + A4,11 + A5,11 + A6,11 <=  1 
+ A1,12 + A2,12 + A3,12 + A4,12 + A5,12 + A6,12 <=  1 
+ A1,13 + A2,13 + A3,13 + A4,13 + A5,13 + A6,13 <=  1 
+ A1,14 + A2,14 + A3,14 + A4,14 + A5,14 + A6,14 <=  1 
+ A1,15 + A2,15 + A3,15 + A4,15 + A5,15 + A6,15 <=  1 
+ A1,16 + A2,16 + A3,16 + A4,16 + A5,16 + A6,16 <=  1 
+ A1,17 + A2,17 + A3,17 + A4,17 + A5,17 + A6,17 <=  1 
+ A1,18 + A2,18 + A3,18 + A4,18 + A5,18 + A6,18 <=  1 
+ A1,19 + A2,19 + A3,19 + A4,19 + A5,19 + A6,19 <=  1 
+ A1,20 + A2,20 + A3,20 + A4,20 + A5,20 + A6,20 <=  1 
+ A1,21 + A2,21 + A3,21 + A4,21 + A5,21 + A6,21 <=  1 
+ A1,22 + A2,22 + A3,22 + A4,22 + A5,22 + A6,22 <=  1 
+ A1,23 + A2,23 + A3,23 + A4,23 + A5,23 + A6,23 <=  1 
+ A1,24 + A2,24 + A3,24 + A4,24 + A5,24 + A6,24 <=  1 
+ A1,25 + A2,25 + A3,25 + A4,25 + A5,25 + A6,25 <=  1 
+ A1,26 + A2,26 + A3,26 + A4,26 + A5,26 + A6,26 <=  1 
+ A1,27 + A2,27 + A3,27 + A4,27 + A5,27 + A6,27 <=  1 
+ A1,28 + A2,28 + A3,28 + A4,28 + A5,28 + A6,28 <=  1 
+ A1,29 + A2,29 + A3,29 + A4,29 + A5,29 + A6,29 <=  1 
+ A1,30 + A2,30 + A3,30 + A4,30 + A5,30 + A6,30 <=  1 
+ A1,31 + A2,31 + A3,31 + A4,31 + A5,31 + A6,31 <=  1 
+ A1,32 + A2,32 + A3,32 + A4,32 + A5,32 + A6,32 <=  1 
+ A1,33 + A2,33 + A3,33 + A4,33 + A5,33 + A6,33 <=  1 
+ A1,34 + A2,34 + A3,34 + A4,34 + A5,34 + A6,34 <=  1 
+ A1,35 + A2,35 + A3,35 + A4,35 + A5,35 + A6,35 <=  1 
+ A1,36 + A2,36 + A3,36 + A4,36 + A5,36 + A6,36 <=  1 
A1,8 - A2,9 - A2,7 - A2,14 - A2,2 <= 0
A2,8 - A3,9 - A3,7 - A3,14 - A3,2 <= 0
A3,8 - A4,9 - A4,7 - A4,14 - A4,2 <= 0
A4,8 - A5,9 - A5,7 - A5,14 - A5,2 <= 0
A5,8 - A6,9 - A6,7 - A6,14 - A6,2 <= 0
A1,9 - A2,10 - A2,8 - A2,15 - A2,3 <= 0
A2,9 - A3,10 - A3,8 - A3,15 - A3,3 <= 0
A3,9 - A4,10 - A4,8 - A4,15 - A4,3 <= 0
A4,9 - A5,10 - A5,8 - A5,15 - A5,3 <= 0
A5,9 - A6,10 - A6,8 - A6,15 - A6,3 <= 0
A1,10 - A2,11 - A2,9 - A2,16 - A2,4 <= 0
A2,10 - A3,11 - A3,9 - A3,16 - A3,4 <= 0
A3,10 - A4,11 - A4,9 - A4,16 - A4,4 <= 0
A4,10 - A5,11 - A5,9 - A5,16 - A5,4 <= 0
A5,10 - A6,11 - A6,9 - A6,16 - A6,4 <= 0
A1,11 - A2,12 - A2,10 - A2,17 - A2,5 <= 0
A2,11 - A3,12 - A3,10 - A3,17 - A3,5 <= 0
A3,11 - A4,12 - A4,10 - A4,17 - A4,5 <= 0
A4,11 - A5,12 - A5,10 - A5,17 - A5,5 <= 0
A5,11 - A6,12 - A6,10 - A6,17 - A6,5 <= 0
A1,14 - A2,15 - A2,13 - A2,20 - A2,8 <= 0
A2,14 - A3,15 - A3,13 - A3,20 - A3,8 <= 0
A3,14 - A4,15 - A4,13 - A4,20 - A4,8 <= 0
A4,14 - A5,15 - A5,13 - A5,20 - A5,8 <= 0
A5,14 - A6,15 - A6,13 - A6,20 - A6,8 <= 0
A1,15 - A2,16 - A2,14 - A2,21 - A2,9 <= 0
A2,15 - A3,16 - A3,14 - A3,21 - A3,9 <= 0
A3,15 - A4,16 - A4,14 - A4,21 - A4,9 <= 0
A4,15 - A5,16 - A5,14 - A5,21 - A5,9 <= 0
A5,15 - A6,16 - A6,14 - A6,21 - A6,9 <= 0
A1,16 - A2,17 - A2,15 - A2,22 - A2,10 <= 0
A2,16 - A3,17 - A3,15 - A3,22 - A3,10 <= 0
A3,16 - A4,17 - A4,15 - A4,22 - A4,10 <= 0
A4,16 - A5,17 - A5,15 - A5,22 - A5,10 <= 0
A5,16 - A6,17 - A6,15 - A6,22 - A6,10 <= 0
A1,17 - A2,18 - A2,16 - A2,23 - A2,11 <= 0
A2,17 - A3,18 - A3,16 - A3,23 - A3,11 <= 0
A3,17 - A4,18 - A4,16 - A4,23 - A4,11 <= 0
A4,17 - A5,18 - A5,16 - A5,23 - A5,11 <= 0
A5,17 - A6,18 - A6,16 - A6,23 - A6,11 <= 0
A1,20 - A2,21 - A2,19 - A2,26 - A2,14 <= 0
A2,20 - A3,21 - A3,19 - A3,26 - A3,14 <= 0
A3,20 - A4,21 - A4,19 - A4,26 - A4,14 <= 0
A4,20 - A5,21 - A5,19 - A5,26 - A5,14 <= 0
A5,20 - A6,21 - A6,19 - A6,26 - A6,14 <= 0
A1,21 - A2,22 - A2,20 - A2,27 - A2,15 <= 0
A2,21 - A3,22 - A3,20 - A3,27 - A3,15 <= 0
A3,21 - A4,22 - A4,20 - A4,27 - A4,15 <= 0
A4,21 - A5,22 - A5,20 - A5,27 - A5,15 <= 0
A5,21 - A6,22 - A6,20 - A6,27 - A6,15 <= 0
A1,22 - A2,23 - A2,21 - A2,28 - A2,16 <= 0
A2,22 - A3,23 - A3,21 - A3,28 - A3,16 <= 0
A3,22 - A4,23 - A4,21 - A4,28 - A4,16 <= 0
A4,22 - A5,23 - A5,21 - A5,28 - A5,16 <= 0
A5,22 - A6,23 - A6,21 - A6,28 - A6,16 <= 0
A1,23 - A2,24 - A2,22 - A2,29 - A2,17 <= 0
A2,23 - A3,24 - A3,22 - A3,29 - A3,17 <= 0
A3,23 - A4,24 - A4,22 - A4,29 - A4,17 <= 0
A4,23 - A5,24 - A5,22 - A5,29 - A5,17 <= 0
A5,23 - A6,24 - A6,22 - A6,29 - A6,17 <= 0
A1,26 - A2,27 - A2,25 - A2,32 - A2,20 <= 0
A2,26 - A3,27 - A3,25 - A3,32 - A3,20 <= 0
A3,26 - A4,27 - A4,25 - A4,32 - A4,20 <= 0
A4,26 - A5,27 - A5,25 - A5,32 - A5,20 <= 0
A5,26 - A6,27 - A6,25 - A6,32 - A6,20 <= 0
A1,27 - A2,28 - A2,26 - A2,33 - A2,21 <= 0
A2,27 - A3,28 - A3,26 - A3,33 - A3,21 <= 0
A3,27 - A4,28 - A4,26 - A4,33 - A4,21 <= 0
A4,27 - A5,28 - A5,26 - A5,33 - A5,21 <= 0
A5,27 - A6,28 - A6,26 - A6,33 - A6,21 <= 0
A1,28 - A2,29 - A2,27 - A2,34 - A2,22 <= 0
A2,28 - A3,29 - A3,27 - A3,34 - A3,22 <= 0
A3,28 - A4,29 - A4,27 - A4,34 - A4,22 <= 0
A4,28 - A5,29 - A5,27 - A5,34 - A5,22 <= 0
A5,28 - A6,29 - A6,27 - A6,34 - A6,22 <= 0
A1,29 - A2,30 - A2,28 - A2,35 - A2,23 <= 0
A2,29 - A3,30 - A3,28 - A3,35 - A3,23 <= 0
A3,29 - A4,30 - A4,28 - A4,35 - A4,23 <= 0
A4,29 - A5,30 - A5,28 - A5,35 - A5,23 <= 0
A5,29 - A6,30 - A6,28 - A6,35 - A6,23 <= 0
A1,2 - A2,3 - A2,1 - A2,8  <= 0
A2,2 - A3,3 - A3,1 - A3,8  <= 0
A3,2 - A4,3 - A4,1 - A4,8  <= 0
A4,2 - A5,3 - A5,1 - A5,8  <= 0
A5,2 - A6,3 - A6,1 - A6,8  <= 0
A1,3 - A2,4 - A2,2 - A2,9  <= 0
A2,3 - A3,4 - A3,2 - A3,9  <= 0
A3,3 - A4,4 - A4,2 - A4,9  <= 0
A4,3 - A5,4 - A5,2 - A5,9  <= 0
A5,3 - A6,4 - A6,2 - A6,9  <= 0
A1,4 - A2,5 - A2,3 - A2,10  <= 0
A2,4 - A3,5 - A3,3 - A3,10  <= 0
A3,4 - A4,5 - A4,3 - A4,10  <= 0
A4,4 - A5,5 - A5,3 - A5,10  <= 0
A5,4 - A6,5 - A6,3 - A6,10  <= 0
A1,5 - A2,6 - A2,4 - A2,11  <= 0
A2,5 - A3,6 - A3,4 - A3,11  <= 0
A3,5 - A4,6 - A4,4 - A4,11  <= 0
A4,5 - A5,6 - A5,4 - A5,11  <= 0
A5,5 - A6,6 - A6,4 - A6,11  <= 0
A1,32 - A2,33 - A2,31 - A2,26  <= 0
A2,32 - A3,33 - A3,31 - A3,26  <= 0
A3,32 - A4,33 - A4,31 - A4,26  <= 0
A4,32 - A5,33 - A5,31 - A5,26  <= 0
A5,32 - A6,33 - A6,31 - A6,26  <= 0
A1,33 - A2,34 - A2,32 - A2,27  <= 0
A2,33 - A3,34 - A3,32 - A3,27  <= 0
A3,33 - A4,34 - A4,32 - A4,27  <= 0
A4,33 - A5,34 - A5,32 - A5,27  <= 0
A5,33 - A6,34 - A6,32 - A6,27  <= 0
A1,34 - A2,35 - A2,33 - A2,28  <= 0
A2,34 - A3,35 - A3,33 - A3,28  <= 0
A3,34 - A4,35 - A4,33 - A4,28  <= 0
A4,34 - A5,35 - A5,33 - A5,28  <= 0
A5,34 - A6,35 - A6,33 - A6,28  <= 0
A1,35 - A2,36 - A2,34 - A2,29  <= 0
A2,35 - A3,36 - A3,34 - A3,29  <= 0
A3,35 - A4,36 - A4,34 - A4,29  <= 0
A4,35 - A5,36 - A5,34 - A5,29  <= 0
A5,35 - A6,36 - A6,34 - A6,29  <= 0
A1,7 - A2,8 - A2,13 - A2,1  <= 0
A2,7 - A3,8 - A3,13 - A3,1  <= 0
A3,7 - A4,8 - A4,13 - A4,1  <= 0
A4,7 - A5,8 - A5,13 - A5,1  <= 0
A5,7 - A6,8 - A6,13 - A6,1  <= 0
A1,13 - A2,14 - A2,19 - A2,7  <= 0
A2,13 - A3,14 - A3,19 - A3,7  <= 0
A3,13 - A4,14 - A4,19 - A4,7  <= 0
A4,13 - A5,14 - A5,19 - A5,7  <= 0
A5,13 - A6,14 - A6,19 - A6,7  <= 0
A1,19 - A2,20 - A2,25 - A2,13  <= 0
A2,19 - A3,20 - A3,25 - A3,13  <= 0
A3,19 - A4,20 - A4,25 - A4,13  <= 0
A4,19 - A5,20 - A5,25 - A5,13  <= 0
A5,19 - A6,20 - A6,25 - A6,13  <= 0
A1,25 - A2,26 - A2,31 - A2,19  <= 0
A2,25 - A3,26 - A3,31 - A3,19  <= 0
A3,25 - A4,26 - A4,31 - A4,19  <= 0
A4,25 - A5,26 - A5,31 - A5,19  <= 0
A5,25 - A6,26 - A6,31 - A6,19  <= 0
A1,12 - A2,11 - A2,18 - A2,6  <= 0
A2,12 - A3,11 - A3,18 - A3,6  <= 0
A3,12 - A4,11 - A4,18 - A4,6  <= 0
A4,12 - A5,11 - A5,18 - A5,6  <= 0
A5,12 - A6,11 - A6,18 - A6,6  <= 0
A1,18 - A2,17 - A2,24 - A2,12  <= 0
A2,18 - A3,17 - A3,24 - A3,12  <= 0
A3,18 - A4,17 - A4,24 - A4,12  <= 0
A4,18 - A5,17 - A5,24 - A5,12  <= 0
A5,18 - A6,17 - A6,24 - A6,12  <= 0
A1,24 - A2,23 - A2,30 - A2,18  <= 0
A2,24 - A3,23 - A3,30 - A3,18  <= 0
A3,24 - A4,23 - A4,30 - A4,18  <= 0
A4,24 - A5,23 - A5,30 - A5,18  <= 0
A5,24 - A6,23 - A6,30 - A6,18  <= 0
A1,30 - A2,29 - A2,36 - A2,24  <= 0
A2,30 - A3,29 - A3,36 - A3,24  <= 0
A3,30 - A4,29 - A4,36 - A4,24  <= 0
A4,30 - A5,29 - A5,36 - A5,24  <= 0
A5,30 - A6,29 - A6,36 - A6,24  <= 0
A1,1 - A2,2 - A2,7  <= 0
A1,6 - A2,5 - A2,12  <= 0
A1,31 - A2,32 - A2,25  <= 0
A1,36 - A2,35 - A2,30  <= 0
A2,1 - A3,2 - A3,7  <= 0
A2,6 - A3,5 - A3,12  <= 0
A2,31 - A3,32 - A3,25  <= 0
A2,36 - A3,35 - A3,30  <= 0
A3,1 - A4,2 - A4,7  <= 0
A3,6 - A4,5 - A4,12  <= 0
A3,31 - A4,32 - A4,25  <= 0
A3,36 - A4,35 - A4,30  <= 0
A4,1 - A5,2 - A5,7  <= 0
A4,6 - A5,5 - A5,12  <= 0
A4,31 - A5,32 - A5,25  <= 0
A4,36 - A5,35 - A5,30  <= 0
A5,1 - A6,2 - A6,7  <= 0
A5,6 - A6,5 - A6,12  <= 0
A5,31 - A6,32 - A6,25  <= 0
A5,36 - A6,35 - A6,30  <= 0
+ A4,1 + A6,1  - I1 = 0 
+ A4,2 + A6,2  - I2 = 0 
+ A4,3 + A6,3  - I3 = 0 
+ A4,4 + A6,4  - I4 = 0 
+ A4,5 + A6,5  - I5 = 0 
+ A4,6 + A6,6  - I6 = 0 
+ A4,7 + A6,7  - I7 = 0 
+ A4,8 + A6,8  - I8 = 0 
+ A4,9 + A6,9  - I9 = 0 
+ A4,10 + A6,10  - I10 = 0 
+ A4,11 + A6,11  - I11 = 0 
+ A4,12 + A6,12  - I12 = 0 
+ A4,13 + A6,13  - I13 = 0 
+ A4,14 + A6,14  - I14 = 0 
+ A4,15 + A6,15  - I15 = 0 
+ A4,16 + A6,16  - I16 = 0 
+ A4,17 + A6,17  - I17 = 0 
+ A4,18 + A6,18  - I18 = 0 
+ A4,19 + A6,19  - I19 = 0 
+ A4,20 + A6,20  - I20 = 0 
+ A4,21 + A6,21  - I21 = 0 
+ A4,22 + A6,22  - I22 = 0 
+ A4,23 + A6,23  - I23 = 0 
+ A4,24 + A6,24  - I24 = 0 
+ A4,25 + A6,25  - I25 = 0 
+ A4,26 + A6,26  - I26 = 0 
+ A4,27 + A6,27  - I27 = 0 
+ A4,28 + A6,28  - I28 = 0 
+ A4,29 + A6,29  - I29 = 0 
+ A4,30 + A6,30  - I30 = 0 
+ A4,31 + A6,31  - I31 = 0 
+ A4,32 + A6,32  - I32 = 0 
+ A4,33 + A6,33  - I33 = 0 
+ A4,34 + A6,34  - I34 = 0 
+ A4,35 + A6,35  - I35 = 0 
+ A4,36 + A6,36  - I36 = 0 
 

I1 + I2 - 2 C1,2 >= 0
I1 + I7 - 2 C1,7 >= 0
I2 + I3 - 2 C2,3 >= 0
I2 + I8 - 2 C2,8 >= 0
I3 + I4 - 2 C3,4 >= 0
I3 + I9 - 2 C3,9 >= 0
I4 + I5 - 2 C4,5 >= 0
I4 + I10 - 2 C4,10 >= 0
I5 + I6 - 2 C5,6 >= 0
I5 + I11 - 2 C5,11 >= 0
I6 + I12 - 2 C6,12 >= 0
I7 + I8 - 2 C7,8 >= 0
I7 + I13 - 2 C7,13 >= 0
I8 + I9 - 2 C8,9 >= 0
I8 + I14 - 2 C8,14 >= 0
I9 + I10 - 2 C9,10 >= 0
I9 + I15 - 2 C9,15 >= 0
I10 + I11 - 2 C10,11 >= 0
I10 + I16 - 2 C10,16 >= 0
I11 + I12 - 2 C11,12 >= 0
I11 + I17 - 2 C11,17 >= 0
I12 + I18 - 2 C12,18 >= 0
I13 + I14 - 2 C13,14 >= 0
I13 + I19 - 2 C13,19 >= 0
I14 + I15 - 2 C14,15 >= 0
I14 + I20 - 2 C14,20 >= 0
I15 + I16 - 2 C15,16 >= 0
I15 + I21 - 2 C15,21 >= 0
I16 + I17 - 2 C16,17 >= 0
I16 + I22 - 2 C16,22 >= 0
I17 + I18 - 2 C17,18 >= 0
I17 + I23 - 2 C17,23 >= 0
I18 + I24 - 2 C18,24 >= 0
I19 + I20 - 2 C19,20 >= 0
I19 + I25 - 2 C19,25 >= 0
I20 + I21 - 2 C20,21 >= 0
I20 + I26 - 2 C20,26 >= 0
I21 + I22 - 2 C21,22 >= 0
I21 + I27 - 2 C21,27 >= 0
I22 + I23 - 2 C22,23 >= 0
I22 + I28 - 2 C22,28 >= 0
I23 + I24 - 2 C23,24 >= 0
I23 + I29 - 2 C23,29 >= 0
I24 + I30 - 2 C24,30 >= 0
I25 + I26 - 2 C25,26 >= 0
I25 + I31 - 2 C25,31 >= 0
I26 + I27 - 2 C26,27 >= 0
I26 + I32 - 2 C26,32 >= 0
I27 + I28 - 2 C27,28 >= 0
I27 + I33 - 2 C27,33 >= 0
I28 + I29 - 2 C28,29 >= 0
I28 + I34 - 2 C28,34 >= 0
I29 + I30 - 2 C29,30 >= 0
I29 + I35 - 2 C29,35 >= 0
I30 + I36 - 2 C30,36 >= 0
I31 + I32 - 2 C31,32 >= 0
I32 + I33 - 2 C32,33 >= 0
I33 + I34 - 2 C33,34 >= 0
I34 + I35 - 2 C34,35 >= 0
I35 + I36 - 2 C35,36 >= 0
 

binary 
C1,2
C1,7
C2,3
C2,8
C3,4
C3,9
C4,5
C4,10
C5,6
C5,11
C6,12
C7,8
C7,13
C8,9
C8,14
C9,10
C9,15
C10,11
C10,16
C11,12
C11,17
C12,18
C13,14
C13,19
C14,15
C14,20
C15,16
C15,21
C16,17
C16,22
C17,18
C17,23
C18,24
C19,20
C19,25
C20,21
C20,26
C21,22
C21,27
C22,23
C22,28
C23,24
C23,29
C24,30
C25,26
C25,31
C26,27
C26,32
C27,28
C27,33
C28,29
C28,34
C29,30
C29,35
C30,36
C31,32
C32,33
C33,34
C34,35
C35,36
A1,1
A1,2
A1,3
A1,4
A1,5
A1,6
A1,7
A1,8
A1,9
A1,10
A1,11
A1,12
A1,13
A1,14
A1,15
A1,16
A1,17
A1,18
A1,19
A1,20
A1,21
A1,22
A1,23
A1,24
A1,25
A1,26
A1,27
A1,28
A1,29
A1,30
A1,31
A1,32
A1,33
A1,34
A1,35
A1,36
A2,1
A2,2
A2,3
A2,4
A2,5
A2,6
A2,7
A2,8
A2,9
A2,10
A2,11
A2,12
A2,13
A2,14
A2,15
A2,16
A2,17
A2,18
A2,19
A2,20
A2,21
A2,22
A2,23
A2,24
A2,25
A2,26
A2,27
A2,28
A2,29
A2,30
A2,31
A2,32
A2,33
A2,34
A2,35
A2,36
A3,1
A3,2
A3,3
A3,4
A3,5
A3,6
A3,7
A3,8
A3,9
A3,10
A3,11
A3,12
A3,13
A3,14
A3,15
A3,16
A3,17
A3,18
A3,19
A3,20
A3,21
A3,22
A3,23
A3,24
A3,25
A3,26
A3,27
A3,28
A3,29
A3,30
A3,31
A3,32
A3,33
A3,34
A3,35
A3,36
A4,1
A4,2
A4,3
A4,4
A4,5
A4,6
A4,7
A4,8
A4,9
A4,10
A4,11
A4,12
A4,13
A4,14
A4,15
A4,16
A4,17
A4,18
A4,19
A4,20
A4,21
A4,22
A4,23
A4,24
A4,25
A4,26
A4,27
A4,28
A4,29
A4,30
A4,31
A4,32
A4,33
A4,34
A4,35
A4,36
A5,1
A5,2
A5,3
A5,4
A5,5
A5,6
A5,7
A5,8
A5,9
A5,10
A5,11
A5,12
A5,13
A5,14
A5,15
A5,16
A5,17
A5,18
A5,19
A5,20
A5,21
A5,22
A5,23
A5,24
A5,25
A5,26
A5,27
A5,28
A5,29
A5,30
A5,31
A5,32
A5,33
A5,34
A5,35
A5,36
A6,1
A6,2
A6,3
A6,4
A6,5
A6,6
A6,7
A6,8
A6,9
A6,10
A6,11
A6,12
A6,13
A6,14
A6,15
A6,16
A6,17
A6,18
A6,19
A6,20
A6,21
A6,22
A6,23
A6,24
A6,25
A6,26
A6,27
A6,28
A6,29
A6,30
A6,31
A6,32
A6,33
A6,34
A6,35
A6,36
I1 
I2 
I3 
I4 
I5 
I6 
I7 
I8 
I9 
I10 
I11 
I12 
I13 
I14 
I15 
I16 
I17 
I18 
I19 
I20 
I21 
I22 
I23 
I24 
I25 
I26 
I27 
I28 
I29 
I30 
I31 
I32 
I33 
I34 
I35 
I36 
 
end